NAME : d198
COMMENT : Drilling
TYPE : TOUR
DIMENSION : 198
TOUR_LENGTH : 16017
ERROR : 0.015019
TOUR_SECTION
175
172
173
174
176
180
182
177
179
183
184
178
193
197
196
195
194
185
192
191
186
187
188
190
189
170
171
165
164
163
162
150
149
144
145
142
143
136
128
127
126
169
125
124
168
123
137
133
134
132
131
130
129
135
140
139
141
146
147
152
148
151
161
160
159
158
157
156
155
154
153
138
122
119
118
117
116
120
121
115
114
103
102
101
100
92
93
94
95
89
88
96
97
87
83
86
98
99
85
84
70
68
57
56
41
42
55
58
67
71
72
69
66
59
54
43
37
30
31
28
29
27
21
22
13
14
39
40
12
11
10
9
8
7
4
3
2
5
6
1
0
15
16
17
18
19
20
23
24
25
26
33
32
35
36
44
53
60
65
73
82
81
74
80
64
61
52
45
51
46
38
34
50
75
76
77
63
49
47
48
62
78
79
90
91
104
113
112
111
105
106
110
109
108
107
166
167
181
-1
EOF
